NAME: concorde91
TYPE: TSP
DIMENSION: 25 
EDGE_WEIGHT_TYPE: EUC_2D
NODE_COORD_SECTION
1 96 81
2 11 6
3 0 46
4 32 72
5 74 68
6 2 20
7 1 42
8 30 22
9 39 2
10 87 11
11 18 27
12 50 51
13 38 37
14 19 8
15 100 99
16 2 2
17 98 63
18 77 1
19 49 14
20 39 53
21 10 54
22 35 81
23 78 60
24 64 21
25 79 62
